8089
16, 24, 15, 6, 4, 43, 33, 51, 52, 14, 13, 47, 27, 28, 12, 25, 46, 38, 39, 35, 1, 22, 32, 45, 19, 10, 31, 9, 8, 41, 3, 18, 17, 7, 2, 42, 21, 30, 23, 20, 50, 29, 44, 34, 37, 48, 5, 11, 26, 40, 36, 49
